100 640
360 450
390 375
215 310
615 105
385 580
420 65
545 400
265 385
205 110
480 15
180 55
450 160
405 190
535 480
355 540
200 355
610 175
570 545
30 35
140 510
155 220
635 635
40 285
120 135
290 350
320 365
405 375
470 340
445 140
610 40
125 335
180 305
565 180
200 630
470 635
450 115
115 10
255 335
295 485
240 185
225 50
420 490
480 485
95 255
605 215
205 295
45 70
460 625
125 190
40 565
310 475
460 260
240 250
390 395
275 315
250 550
140 635
355 205
210 380
85 530
190 325
320 250
605 5
270 270
110 520
510 235
475 290
605 520
390 335
45 70
450 415
595 470
335 220
190 615
340 430
310 20
185 225
40 550
130 640
620 220
365 25
460 420
35 345
415 345
135 440
20 490
500 55
325 285
395 585
515 410
430 165
120 305
105 145
260 95
80 135
5 410
370 45
450 445
210 280
510 635
